8 2 10 6 1 3 7 
4 8 7 5 6 9 10 
6 9 4 10 3 8 2 
6 1 7 8 4 10 2 3
8 7 5 3 1 2 4 
6 8 4 3 1 9 5 
10 9 5 8 7 3 6 
10 6 8 2 1 5 9 
5 9 7 8 1 6 3 
4 10 1 9 8 7 6 
3 8 6 7 2 1 4 
7 10 1 4 8 5 3 
7 8 5 3 1 4 10 
1 4 8 3 5 6 9 
8 1 5 10 7 9 2 
1 7 9 6 3 8 5 
10 4 6 1 9 3 8 
7 9 6 3 10 5 2 
3 7 8 1 5 4 10 
6 4 8 9 3 1 7 
